p cnf 10 19
10 3 4 0
8 -4 -1 0
1 4 -2 0
-6 2 -5 0
8 10 4 -3 0
-6 -4 -10 -9 0
8 -6 3 -2 0
10 2 6 -5 0
4 -3 -10 0
5 -2 -1 0
10 -5 6 7 0
3 5 6 -7 10 -1 0
8 2 7 -9 0
8 2 -3 0
2 3 6 9 -10 -7 -5 -4 0
-8 -1 7 0
3 4 -10 -9 -5 0
-7 5 -2 0
1 3 5 8 9 -7 -6 0
